tsp_instances/TSP20/instance74.tsp
NODE_COORD_SECTION
0 100 29
1 51 120
2 119 16
3 84 96
4 87 195
5 119 51
6 195 54
7 11 26
8 13 115
9 156 190
10 178 59
11 87 132
12 95 2
13 199 82
14 200 59
15 40 174
16 80 116
17 5 130
18 168 198
19 166 185
