tsp_instances/TSP20/instance74.opt.tour
TOUR_SECTION
1
3
13
8
4
17
12
2
9
18
16
5
10
19
20
14
15
7
11
6
-1